99993 100236 172 447
99798 99847 203 448
99993 100236 204 449
99993 100236 187 450
99742 99984 172 451
99954 100158 187 452
99993 100236 204 453
99915 100080 187 454
99844 99939 203 455
99819 99889 297 456
99822 99895 219 457
99915 100080 187 458
99742 99984 172 459
99993 100236 235 460
99954 100158 187 461
99817 99885 188 462
99846 99943 187 463
99954 100158 188 464
99846 99943 187 465
99954 100158 172 466
99993 100236 187 467
99839 99929 188 468
99831 99913 187 469
99993 100236 188 470
99954 100158 187 471
99954 100158 188 472
99824 99899 172 473
99834 99919 187 474
99839 99929 188 475
99839 99929 172 476
